20
13
8 15 18 5 3 7 2 1 16 12
1 18 5 16 10 13 8 6 7 12 4 2 14 0
10 16 18 0 11 17 19 4 5 13 14 9 6 3 7 2 12 1 15
0 8 5 11 18
15 6 18 9 2 5
1 5 3 18 9 14 12 6 0 4 16 7 15 19 2 13 17 8 11 10
13 18 8 19 9 3 11 2 14
7 16 5 4 11 14 17 0 12 18 19 9 1 6 15 8
6 1 2 9 17 12 5 13 8 7 15 19 18 10 0 3
8 7 5 6 15 12 19 1 9
0 7 6 17
10 16
17 2 13
